(set-logic QF_LRA)
(declare-const left_value Real)
(declare-const midpoint_value Real)
(declare-const right_value Real)
(assert (= left_value 0))
(assert (= midpoint_value 1))
(assert (= right_value 0))
(assert (<= (* 2 midpoint_value) (+ left_value right_value)))
(check-sat)
